networks/zoo_54_421/zoo_54_421-lower.txt
Number of groups: 39
Flow 6: {4 7 0} {7 34 0} 
Flow 40: {3 21 0} {21 15 0} {15 42 0} 
Flow 41: {17 16 0} {16 43 0} 
Flow 116: {5 8 0} {8 3 0} {3 4 0} {4 27 0} {27 54 0} 
Flow 126: {6 9 0} {9 11 0} {11 38 0} 
Flow 129: {9 14 0} {14 41 0} 
Flow 138: {1 26 0} {26 22 0} {22 24 0} {24 51 0} 
Flow 146: {7 8 0} {8 5 0} {5 32 0} 
Flow 157: {7 4 0} {4 17 0} {17 44 0} 
Flow 158: {7 2 0} {2 3 0} {3 18 0} {18 45 0} 
Flow 173: {8 7 0} 
Flow 194: {2 7 0} 
Flow 221: {10 13 0} {13 40 0} 
Flow 238: {11 9 0} {9 10 0} {10 4 0} {4 22 0} {22 49 0} 
Flow 243: {12 17 0} {17 21 0} 
Flow 245: {13 10 0} {10 2 0} {2 29 0} 
Flow 249: {14 9 0} {9 6 0} {6 1 0} {1 28 0} 
Flow 252: {14 10 0} {10 37 0} 
Flow 256: {15 21 0} {21 3 0} 
Flow 261: {16 17 0} {17 4 0} {4 1 0} {1 6 0} {6 33 0} 
Flow 279: {18 3 0} {3 2 0} {2 10 0} {10 14 0} 
Flow 280: {18 19 0} 
Flow 294: {19 3 0} {3 8 0} {8 35 0} 
Flow 302: {19 18 0} {18 27 0} 
Flow 309: {20 4 0} {4 10 0} {10 9 0} {9 36 0} 
Flow 312: {20 21 0} {21 48 0} 
Flow 327: {21 17 0} {17 12 0} {12 39 0} 
Flow 335: {21 20 0} {20 47 0} 
Flow 337: {21 22 0} {22 23 0} {23 50 0} 
Flow 341: {21 27 0} 
Flow 360: {3 19 0} {19 46 0} 
Flow 365: {22 25 0} {25 52 0} 
Flow 370: {23 22 0} {22 4 0} {4 3 0} {3 30 0} 
Flow 385: {24 22 0} {22 26 0} {26 53 0} 
Flow 390: {25 22 0} {22 21 0} 
Flow 406: {26 1 0} {1 4 0} {4 20 0} 
Flow 415: {27 4 0} {4 31 0} 
Flow 418: {27 18 0} 
Flow 419: {27 21 0} 
Time taken running everything: 2 seconds
