networks/zoo_54_421/zoo_54_421-lower.sol
<?xml version = "1.0" encoding="UTF-8" standalone="yes"?>
<CPLEXSolution version="1.2">
 <header
   problemName="networks/zoo_54_421/zoo_54_421-lower.lp"
   solutionName="incumbent"
   solutionIndex="-1"
   objectiveValue="27"
   solutionTypeValue="3"
   solutionTypeString="primal"
   solutionStatusValue="101"
   solutionStatusString="integer optimal solution"
   solutionMethodString="mip"
   primalFeasible="1"
   dualFeasible="1"
   MIPNodes="0"
   MIPIterations="0"
   writeLevel="3"/>
 <quality
   epInt="1.0000000000000001e-05"
   epRHS="9.9999999999999995e-07"
   maxIntInfeas="0"
   maxPrimalInfeas="0"
   maxX="1"
   maxSlack="1"/>
 <variables>
  <variable name="Y(1,2)" index="1" value="1"/>
  <variable name="Y(2,3)" index="56" value="1"/>
  <variable name="Y(3,4)" index="111" value="1"/>
  <variable name="Y(4,5)" index="166" value="1"/>
  <variable name="Y(5,6)" index="221" value="1"/>
  <variable name="Y(6,7)" index="276" value="1"/>
  <variable name="Y(7,8)" index="331" value="1"/>
  <variable name="Y(8,9)" index="386" value="1"/>
  <variable name="Y(9,10)" index="441" value="1"/>
  <variable name="Y(10,11)" index="496" value="1"/>
  <variable name="Y(11,12)" index="551" value="1"/>
  <variable name="Y(12,13)" index="606" value="1"/>
  <variable name="Y(13,14)" index="661" value="1"/>
  <variable name="Y(14,15)" index="716" value="1"/>
  <variable name="Y(15,16)" index="771" value="1"/>
  <variable name="Y(16,17)" index="826" value="1"/>
  <variable name="Y(17,18)" index="881" value="1"/>
  <variable name="Y(18,19)" index="936" value="1"/>
  <variable name="Y(19,20)" index="991" value="1"/>
  <variable name="Y(20,21)" index="1046" value="1"/>
  <variable name="Y(21,22)" index="1101" value="1"/>
  <variable name="Y(22,23)" index="1156" value="1"/>
  <variable name="Y(23,24)" index="1211" value="1"/>
  <variable name="Y(24,25)" index="1266" value="1"/>
  <variable name="Y(25,26)" index="1321" value="1"/>
  <variable name="Y(26,27)" index="1376" value="1"/>
  <variable name="Y(27,1)" index="1404" value="1"/>
  <variable name="X(1,4,1)" index="22734" value="1"/>
  <variable name="X(1,6,5)" index="23159" value="1"/>
  <variable name="X(1,26,14)" index="23589" value="1"/>
  <variable name="X(1,28,27)" index="24023" value="1"/>
  <variable name="X(2,3,28)" index="24445" value="1"/>
  <variable name="X(2,7,32)" index="24870" value="1"/>
  <variable name="X(2,10,27)" index="25286" value="1"/>
  <variable name="X(2,29,1)" index="25681" value="1"/>
  <variable name="X(3,2,1)" index="26102" value="1"/>
  <variable name="X(3,4,53)" index="26575" value="1"/>
  <variable name="X(3,8,4)" index="26947" value="1"/>
  <variable name="X(3,18,17)" index="27381" value="1"/>
  <variable name="X(3,19,18)" index="27803" value="1"/>
  <variable name="X(3,21,40)" index="28246" value="1"/>
  <variable name="X(3,30,2)" index="28629" value="1"/>
  <variable name="X(4,1,27)" index="29075" value="1"/>
  <variable name="X(4,3,1)" index="29470" value="1"/>
  <variable name="X(4,7,6)" index="29896" value="1"/>
  <variable name="X(4,10,9)" index="30320" value="1"/>
  <variable name="X(4,17,11)" index="30743" value="1"/>
  <variable name="X(4,20,19)" index="31172" value="1"/>
  <variable name="X(4,22,47)" index="31621" value="1"/>
  <variable name="X(4,27,26)" index="32021" value="1"/>
  <variable name="X(4,31,3)" index="32419" value="1"/>
  <variable name="X(5,8,104)" index="32941" value="1"/>
  <variable name="X(5,32,4)" index="33262" value="1"/>
  <variable name="X(6,1,117)" index="33796" value="1"/>
  <variable name="X(6,9,8)" index="34108" value="1"/>
  <variable name="X(6,33,5)" index="34526" value="1"/>
  <variable name="X(7,2,143)" index="35085" value="1"/>
  <variable name="X(7,4,142)" index="35505" value="1"/>
  <variable name="X(7,8,146)" index="35930" value="1"/>
  <variable name="X(7,34,6)" index="36211" value="1"/>
  <variable name="X(8,3,104)" index="36730" value="1"/>
  <variable name="X(8,5,4)" index="37051" value="1"/>
  <variable name="X(8,7,173)" index="37641" value="1"/>
  <variable name="X(8,35,7)" index="37896" value="1"/>
  <variable name="X(9,6,31)" index="38341" value="1"/>
  <variable name="X(9,10,118)" index="38849" value="1"/>
  <variable name="X(9,11,10)" index="39162" value="1"/>
  <variable name="X(9,14,129)" index="39702" value="1"/>
  <variable name="X(9,36,8)" index="40002" value="1"/>
  <variable name="X(10,2,118)" index="40533" value="1"/>
  <variable name="X(10,4,27)" index="40863" value="1"/>
  <variable name="X(10,9,31)" index="41288" value="1"/>
  <variable name="X(10,13,12)" index="41690" value="1"/>
  <variable name="X(10,14,13)" index="42112" value="1"/>
  <variable name="X(10,37,9)" index="42529" value="1"/>
  <variable name="X(11,9,233)" index="43174" value="1"/>
  <variable name="X(11,38,10)" index="43372" value="1"/>
  <variable name="X(12,17,239)" index="44022" value="1"/>
  <variable name="X(12,39,11)" index="44215" value="1"/>
  <variable name="X(13,10,245)" index="44870" value="1"/>
  <variable name="X(13,40,12)" index="45058" value="1"/>
  <variable name="X(14,9,249)" index="45716" value="1"/>
  <variable name="X(14,10,250)" index="46138" value="1"/>
  <variable name="X(14,41,13)" index="46322" value="1"/>
  <variable name="X(15,21,255)" index="46985" value="1"/>
  <variable name="X(15,42,14)" index="47165" value="1"/>
  <variable name="X(16,17,257)" index="47829" value="1"/>
  <variable name="X(16,43,15)" index="48008" value="1"/>
  <variable name="X(17,4,239)" index="48653" value="1"/>
  <variable name="X(17,12,11)" index="48846" value="1"/>
  <variable name="X(17,16,15)" index="49271" value="1"/>
  <variable name="X(17,21,243)" index="49920" value="1"/>
  <variable name="X(17,44,16)" index="50114" value="1"/>
  <variable name="X(18,3,269)" index="50788" value="1"/>
  <variable name="X(18,19,280)" index="51220" value="1"/>
  <variable name="X(18,27,287)" index="51648" value="1"/>
  <variable name="X(18,45,17)" index="51799" value="1"/>
  <variable name="X(19,3,288)" index="52491" value="1"/>
  <variable name="X(19,18,298)" index="52922" value="1"/>
  <variable name="X(19,46,18)" index="53063" value="1"/>
  <variable name="X(20,4,303)" index="53769" value="1"/>
  <variable name="X(20,21,312)" index="54199" value="1"/>
  <variable name="X(20,47,19)" index="54327" value="1"/>
  <variable name="X(21,3,255)" index="54984" value="1"/>
  <variable name="X(21,15,14)" index="55164" value="1"/>
  <variable name="X(21,17,327)" index="55898" value="1"/>
  <variable name="X(21,20,335)" index="56327" value="1"/>
  <variable name="X(21,22,336)" index="56749" value="1"/>
  <variable name="X(21,27,341)" index="57175" value="1"/>
  <variable name="X(21,48,20)" index="57275" value="1"/>
  <variable name="X(22,4,342)" index="58018" value="1"/>
  <variable name="X(22,21,14)" index="58111" value="1"/>
  <variable name="X(22,23,22)" index="58540" value="1"/>
  <variable name="X(22,24,23)" index="58962" value="1"/>
  <variable name="X(22,25,24)" index="59384" value="1"/>
  <variable name="X(22,26,340)" index="60121" value="1"/>
  <variable name="X(22,49,21)" index="60223" value="1"/>
  <variable name="X(23,22,368)" index="60991" value="1"/>
  <variable name="X(23,50,22)" index="61066" value="1"/>
  <variable name="X(24,22,377)" index="61842" value="1"/>
  <variable name="X(24,51,23)" index="61909" value="1"/>
  <variable name="X(25,22,386)" index="62693" value="1"/>
  <variable name="X(25,52,24)" index="62752" value="1"/>
  <variable name="X(26,1,392)" index="63541" value="1"/>
  <variable name="X(26,22,14)" index="63584" value="1"/>
  <variable name="X(26,53,25)" index="64016" value="1"/>
  <variable name="X(27,4,412)" index="64824" value="1"/>
  <variable name="X(27,18,418)" index="65251" value="1"/>
  <variable name="X(27,21,419)" index="65673" value="1"/>
  <variable name="X(27,54,26)" index="65701" value="1"/>
 </variables>
</CPLEXSolution>
